140 141 151 150 149 152 148 147 142 143 144 146 145 158 157 153 155 156 159 160 154 165 203 204 202 208 207 206 205 198 199 200 201 164 166 167 163 168 162 161 113 112 114 115 116 117 118 119 120 121 122 123 71 72 73 74 75 76 77 88 89 87 86 85 90 92 91 93 94 97 95 96 98 99 552 553 554 556 557 558 559 550 551 101 100 102 103 104 105 106 547 546 545 544 543 541 542 107 110 111 109 108 173 174 175 172 170 171 169 180 181 179 182 183 185 184 197 196 195 194 209 210 211 212 213 214 215 216 217 223 224 222 221 220 218 219 193 192 191 190 226 225 189 227 186 188 187 178 177 176 540 538 539 537 536 535 487 486 534 488 489 530 531 532 533 230 229 228 231 233 232 234 235 236 237 506 507 508 302 301 303 304 307 305 306 318 317 319 320 321 297 298 299 300 241 242 244 243 240 239 238 246 247 245 248 249 250 251 252 254 253 255 256 257 260 261 259 258 262 263 264 265 266 267 271 272 269 268 270 296 295 294 293 291 292 273 274 275 290 289 288 276 277 278 279 282 281 280 287 286 285 284 283 334 335 336 337 338 339 333 332 331 330 340 341 344 343 342 366 329 328 327 326 325 324 323 322 373 374 316 314 315 376 377 378 379 380 381 390 392 391 393 394 375 395 396 371 372 370 369 368 367 365 364 345 346 362 363 361 347 348 349 350 351 352 414 415 416 413 353 354 355 356 357 358 359 360 401 402 403 409 405 408 407 406 404 400 399 398 397 389 388 387 386 385 383 384 410 411 412 418 417 419 420 421 422 423 424 425 382 426 427 428 429 431 430 432 433 434 435 437 438 436 443 444 445 446 442 439 454 455 456 457 458 459 460 461 462 463 464 465 496 497 498 501 500 499 452 453 440 441 449 448 447 450 451 312 313 311 310 309 308 505 504 503 502 517 519 518 520 521 523 526 522 514 515 516 509 510 511 513 512 527 528 529 490 491 492 525 524 493 485 484 483 481 482 475 476 480 479 477 478 548 549 560 561 562 563 564 565 566 567 474 473 472 494 495 471 470 469 468 467 466 571 572 573 0 1 2 3 4 5 6 7 8 9 10 11 17 18 570 569 568 20 19 16 15 14 13 12 23 22 21 24 25 26 27 28 29 31 30 32 33 34 35 36 37 38 40 41 39 42 43 44 45 555 46 47 48 49 54 50 84 51 52 53 55 56 83 82 57 58 59 81 80 79 78 62 61 60 63 64 65 66 67 68 70 69 124 125 126 127 128 129 130 131 132 133 134 135 136 137 138 139